benchmarks_CP/INST_64x64/50/inst64x64_50_74.dzn
S=8;
start=[|
-1,	8,	3,	43,	-1,	-1,	-1,	54,	48,	1,	19,	-1,	-1,	5,	60,	-1,	-1,	57,	-1,	63,	11,	59,	-1,	-1,	-1,	-1,	7,	-1,	-1,	49,	-1,	-1,	21,	-1,	-1,	6,	55,	9,	-1,	-1,	18,	-1,	-1,	17,	-1,	34,	-1,	-1,	61,	-1,	-1,	44,	32,	-1,	-1,	12,	-1,	42,	24,	-1,	-1,	25,	40,	-1|
59,	-1,	22,	-1,	36,	-1,	63,	-1,	-1,	-1,	29,	-1,	-1,	34,	-1,	42,	-1,	58,	35,	21,	-1,	62,	31,	45,	56,	38,	-1,	-1,	2,	-1,	-1,	-1,	10,	-1,	64,	32,	-1,	-1,	30,	25,	-1,	-1,	-1,	19,	-1,	11,	-1,	8,	-1,	-1,	1,	-1,	-1,	53,	-1,	33,	-1,	-1,	-1,	12,	7,	-1,	-1,	-1|
1,	-1,	56,	-1,	-1,	16,	-1,	-1,	-1,	59,	54,	-1,	-1,	-1,	-1,	13,	38,	49,	-1,	52,	-1,	-1,	-1,	-1,	-1,	-1,	35,	33,	-1,	-1,	4,	-1,	62,	-1,	47,	58,	-1,	60,	44,	-1,	45,	64,	26,	-1,	63,	-1,	43,	-1,	48,	-1,	-1,	-1,	-1,	-1,	27,	15,	46,	-1,	32,	20,	9,	-1,	50,	55|
23,	-1,	31,	13,	-1,	28,	-1,	-1,	52,	-1,	-1,	15,	-1,	49,	-1,	18,	-1,	32,	-1,	-1,	6,	20,	2,	55,	57,	-1,	-1,	25,	30,	-1,	-1,	29,	5,	43,	-1,	-1,	48,	4,	-1,	46,	-1,	38,	44,	40,	-1,	9,	39,	54,	-1,	42,	63,	58,	-1,	51,	-1,	37,	-1,	-1,	3,	26,	-1,	1,	35,	17|
53,	6,	9,	-1,	49,	42,	-1,	-1,	26,	-1,	16,	12,	51,	33,	-1,	7,	-1,	39,	24,	-1,	8,	-1,	60,	25,	-1,	-1,	-1,	23,	15,	-1,	-1,	1,	-1,	40,	-1,	59,	-1,	13,	-1,	-1,	36,	58,	48,	-1,	-1,	-1,	10,	21,	41,	-1,	-1,	-1,	50,	-1,	-1,	-1,	-1,	-1,	-1,	-1,	-1,	-1,	30,	18|
55,	-1,	-1,	-1,	-1,	24,	-1,	10,	-1,	30,	-1,	-1,	28,	-1,	-1,	45,	-1,	-1,	-1,	-1,	-1,	36,	33,	-1,	-1,	-1,	-1,	6,	-1,	31,	-1,	11,	19,	-1,	-1,	-1,	12,	63,	8,	1,	-1,	51,	42,	-1,	-1,	-1,	-1,	-1,	64,	18,	-1,	-1,	13,	-1,	-1,	-1,	-1,	21,	-1,	52,	15,	-1,	-1,	56|
39,	-1,	32,	-1,	-1,	4,	-1,	-1,	-1,	-1,	14,	-1,	53,	-1,	55,	25,	48,	54,	-1,	42,	64,	-1,	30,	5,	-1,	-1,	8,	21,	-1,	-1,	-1,	51,	23,	-1,	-1,	17,	-1,	-1,	49,	11,	-1,	-1,	59,	50,	28,	-1,	1,	-1,	-1,	-1,	-1,	36,	-1,	29,	60,	-1,	63,	45,	-1,	-1,	-1,	41,	-1,	27|
-1,	47,	-1,	44,	38,	-1,	-1,	35,	62,	17,	23,	6,	-1,	39,	-1,	2,	-1,	1,	41,	4,	-1,	-1,	50,	-1,	9,	22,	-1,	27,	55,	-1,	61,	10,	-1,	-1,	54,	34,	3,	20,	53,	7,	-1,	-1,	-1,	14,	46,	-1,	31,	57,	-1,	-1,	52,	40,	-1,	-1,	-1,	11,	29,	-1,	-1,	-1,	8,	48,	28,	36|
-1,	-1,	37,	40,	-1,	-1,	-1,	9,	5,	-1,	-1,	32,	30,	-1,	-1,	-1,	19,	-1,	-1,	-1,	34,	64,	-1,	-1,	-1,	43,	-1,	47,	60,	57,	55,	36,	-1,	23,	-1,	41,	-1,	48,	-1,	-1,	51,	52,	-1,	-1,	-1,	4,	24,	-1,	35,	-1,	58,	53,	42,	14,	54,	7,	62,	50,	-1,	6,	-1,	-1,	-1,	-1|
43,	64,	53,	50,	41,	35,	-1,	-1,	56,	58,	46,	62,	3,	-1,	-1,	37,	-1,	51,	-1,	39,	-1,	-1,	-1,	49,	-1,	48,	2,	-1,	59,	-1,	15,	-1,	61,	-1,	31,	-1,	5,	36,	-1,	26,	-1,	21,	9,	-1,	34,	63,	-1,	-1,	-1,	20,	23,	-1,	18,	52,	-1,	-1,	-1,	-1,	28,	13,	42,	-1,	-1,	33|
-1,	-1,	14,	29,	-1,	48,	55,	6,	-1,	-1,	-1,	54,	40,	17,	-1,	-1,	21,	23,	30,	56,	-1,	-1,	7,	28,	41,	-1,	34,	53,	-1,	-1,	-1,	24,	9,	35,	-1,	-1,	46,	43,	-1,	57,	59,	-1,	-1,	-1,	-1,	-1,	42,	-1,	-1,	-1,	-1,	-1,	-1,	11,	-1,	-1,	-1,	-1,	37,	10,	-1,	-1,	-1,	64|
-1,	54,	36,	-1,	-1,	-1,	-1,	60,	31,	-1,	13,	8,	43,	53,	16,	26,	-1,	55,	17,	35,	45,	38,	24,	58,	40,	5,	52,	46,	-1,	20,	-1,	12,	-1,	49,	39,	51,	47,	-1,	-1,	-1,	-1,	-1,	29,	62,	-1,	-1,	-1,	14,	-1,	9,	-1,	-1,	3,	1,	34,	-1,	11,	-1,	-1,	59,	-1,	56,	-1,	-1|
-1,	-1,	4,	-1,	-1,	33,	58,	-1,	-1,	6,	42,	22,	23,	59,	38,	-1,	-1,	-1,	-1,	-1,	-1,	41,	-1,	9,	10,	13,	29,	-1,	-1,	-1,	-1,	30,	17,	16,	1,	-1,	-1,	62,	54,	40,	57,	55,	-1,	-1,	-1,	-1,	-1,	11,	27,	39,	60,	64,	-1,	32,	-1,	56,	24,	-1,	-1,	53,	51,	-1,	-1,	12|
10,	16,	20,	-1,	-1,	12,	-1,	31,	24,	51,	11,	-1,	2,	21,	-1,	-1,	13,	59,	22,	14,	-1,	-1,	-1,	-1,	-1,	26,	-1,	-1,	-1,	-1,	27,	3,	34,	19,	-1,	55,	25,	-1,	58,	60,	-1,	-1,	30,	-1,	-1,	28,	7,	37,	49,	17,	-1,	15,	48,	62,	-1,	-1,	39,	52,	-1,	-1,	57,	-1,	-1,	23|
-1,	19,	38,	57,	-1,	23,	-1,	56,	47,	10,	39,	-1,	35,	7,	44,	64,	-1,	-1,	2,	-1,	-1,	6,	36,	-1,	1,	8,	37,	-1,	42,	-1,	-1,	-1,	-1,	32,	52,	-1,	-1,	11,	14,	-1,	40,	-1,	-1,	-1,	-1,	20,	3,	-1,	-1,	16,	-1,	-1,	-1,	-1,	-1,	-1,	-1,	-1,	-1,	-1,	49,	26,	-1,	-1|
18,	-1,	15,	-1,	-1,	-1,	-1,	32,	-1,	55,	-1,	-1,	-1,	60,	-1,	-1,	46,	48,	-1,	11,	16,	-1,	-1,	3,	-1,	-1,	28,	9,	25,	4,	-1,	-1,	38,	21,	42,	-1,	20,	-1,	-1,	30,	-1,	17,	56,	45,	-1,	-1,	23,	64,	10,	22,	-1,	-1,	29,	-1,	43,	13,	14,	7,	-1,	-1,	-1,	-1,	1,	-1|
25,	33,	63,	61,	-1,	59,	14,	-1,	41,	40,	38,	31,	-1,	52,	34,	-1,	-1,	27,	49,	-1,	-1,	37,	-1,	-1,	43,	-1,	-1,	24,	18,	9,	-1,	13,	-1,	-1,	-1,	60,	53,	-1,	28,	19,	-1,	12,	32,	44,	-1,	-1,	2,	30,	-1,	23,	48,	56,	-1,	-1,	-1,	58,	-1,	57,	-1,	-1,	22,	-1,	8,	50|
-1,	18,	28,	3,	-1,	-1,	57,	-1,	22,	-1,	-1,	-1,	14,	-1,	33,	-1,	-1,	17,	-1,	20,	36,	-1,	-1,	-1,	-1,	-1,	-1,	-1,	32,	19,	2,	23,	-1,	8,	43,	15,	-1,	-1,	-1,	54,	-1,	-1,	-1,	26,	11,	45,	63,	48,	-1,	64,	-1,	60,	61,	40,	1,	-1,	56,	25,	-1,	44,	-1,	-1,	-1,	39|
-1,	24,	62,	12,	-1,	-1,	-1,	5,	-1,	-1,	-1,	17,	-1,	-1,	-1,	44,	-1,	45,	16,	57,	-1,	-1,	4,	41,	46,	-1,	39,	-1,	48,	-1,	40,	-1,	42,	-1,	-1,	-1,	-1,	-1,	22,	61,	-1,	8,	-1,	-1,	-1,	59,	-1,	35,	-1,	-1,	-1,	-1,	-1,	28,	32,	3,	-1,	-1,	14,	-1,	55,	37,	29,	9|
40,	4,	-1,	-1,	-1,	-1,	45,	-1,	1,	11,	10,	42,	-1,	16,	-1,	23,	53,	-1,	-1,	44,	-1,	-1,	18,	15,	-1,	41,	-1,	61,	-1,	14,	-1,	35,	-1,	-1,	-1,	-1,	-1,	-1,	-1,	-1,	-1,	-1,	-1,	-1,	37,	36,	-1,	28,	7,	-1,	34,	-1,	-1,	63,	12,	21,	-1,	38,	-1,	-1,	33,	-1,	-1,	-1|
9,	43,	34,	-1,	-1,	2,	50,	-1,	32,	-1,	-1,	-1,	57,	63,	64,	24,	-1,	21,	-1,	-1,	60,	-1,	-1,	-1,	49,	11,	-1,	52,	8,	-1,	-1,	59,	55,	46,	23,	37,	40,	18,	45,	12,	5,	-1,	-1,	10,	-1,	-1,	-1,	-1,	44,	54,	-1,	-1,	-1,	39,	-1,	14,	-1,	53,	36,	31,	-1,	30,	4,	-1|
38,	55,	-1,	17,	-1,	-1,	53,	-1,	61,	8,	-1,	-1,	-1,	-1,	18,	-1,	-1,	40,	-1,	2,	29,	-1,	22,	-1,	44,	-1,	33,	45,	54,	60,	-1,	28,	-1,	48,	-1,	26,	-1,	-1,	62,	-1,	9,	-1,	-1,	-1,	-1,	15,	-1,	-1,	-1,	46,	25,	5,	-1,	-1,	-1,	-1,	34,	-1,	-1,	24,	-1,	-1,	51,	-1|
56,	27,	48,	-1,	-1,	47,	52,	8,	-1,	-1,	-1,	-1,	-1,	2,	25,	21,	-1,	-1,	-1,	-1,	-1,	-1,	61,	-1,	-1,	12,	22,	-1,	-1,	51,	-1,	-1,	57,	59,	33,	9,	-1,	34,	-1,	-1,	-1,	29,	-1,	-1,	-1,	-1,	-1,	31,	53,	-1,	-1,	-1,	41,	43,	-1,	-1,	54,	11,	-1,	40,	-1,	45,	63,	62|
54,	-1,	11,	-1,	-1,	44,	-1,	-1,	-1,	-1,	45,	-1,	-1,	51,	46,	60,	-1,	-1,	-1,	64,	48,	26,	-1,	23,	30,	50,	-1,	-1,	-1,	-1,	56,	63,	24,	20,	38,	-1,	-1,	-1,	6,	-1,	-1,	-1,	-1,	-1,	62,	21,	-1,	-1,	37,	-1,	-1,	-1,	-1,	-1,	18,	42,	35,	3,	19,	7,	-1,	28,	-1,	-1|
51,	-1,	-1,	62,	16,	-1,	34,	24,	-1,	44,	56,	58,	20,	-1,	-1,	-1,	63,	-1,	45,	54,	27,	-1,	-1,	7,	-1,	2,	-1,	-1,	-1,	43,	-1,	18,	-1,	-1,	11,	-1,	14,	-1,	61,	-1,	21,	-1,	17,	36,	-1,	37,	-1,	19,	50,	48,	-1,	46,	35,	25,	-1,	23,	4,	-1,	-1,	22,	-1,	-1,	-1,	-1|
30,	-1,	-1,	-1,	8,	-1,	-1,	-1,	53,	27,	-1,	47,	-1,	1,	59,	63,	-1,	18,	-1,	9,	-1,	46,	34,	36,	-1,	-1,	54,	-1,	4,	13,	-1,	48,	-1,	-1,	24,	-1,	-1,	-1,	-1,	43,	12,	11,	6,	-1,	52,	40,	-1,	25,	-1,	-1,	15,	-1,	14,	-1,	-1,	61,	-1,	-1,	10,	50,	-1,	-1,	-1,	42|
37,	9,	-1,	6,	40,	-1,	27,	-1,	19,	52,	-1,	-1,	-1,	-1,	-1,	4,	-1,	47,	-1,	12,	21,	8,	53,	-1,	-1,	3,	61,	10,	51,	-1,	36,	41,	-1,	-1,	-1,	-1,	38,	-1,	60,	-1,	-1,	63,	-1,	-1,	22,	-1,	26,	-1,	-1,	62,	-1,	-1,	64,	-1,	-1,	18,	-1,	-1,	15,	1,	-1,	-1,	56,	-1|
-1,	-1,	19,	36,	60,	14,	10,	-1,	-1,	-1,	-1,	21,	54,	-1,	-1,	43,	-1,	62,	-1,	55,	-1,	52,	44,	-1,	28,	27,	5,	-1,	56,	25,	-1,	26,	-1,	-1,	-1,	47,	-1,	-1,	4,	39,	2,	-1,	-1,	-1,	59,	8,	15,	-1,	40,	7,	-1,	11,	22,	-1,	-1,	-1,	-1,	-1,	48,	34,	-1,	-1,	6,	24|
-1,	-1,	26,	41,	22,	56,	-1,	-1,	-1,	38,	6,	-1,	8,	-1,	-1,	-1,	33,	20,	-1,	3,	15,	23,	-1,	43,	34,	-1,	-1,	11,	-1,	64,	16,	44,	52,	-1,	-1,	21,	-1,	10,	32,	2,	-1,	-1,	-1,	-1,	47,	-1,	-1,	-1,	5,	59,	36,	55,	39,	12,	9,	-1,	30,	-1,	-1,	-1,	-1,	-1,	-1,	25|
44,	15,	52,	11,	48,	17,	-1,	57,	2,	-1,	-1,	-1,	61,	26,	-1,	40,	-1,	6,	59,	37,	-1,	10,	39,	-1,	-1,	20,	62,	55,	-1,	7,	35,	21,	-1,	50,	19,	-1,	-1,	16,	-1,	27,	-1,	4,	-1,	9,	-1,	-1,	33,	-1,	-1,	41,	47,	-1,	-1,	-1,	30,	-1,	-1,	51,	53,	-1,	14,	-1,	-1,	-1|
-1,	35,	-1,	39,	20,	64,	-1,	59,	7,	-1,	-1,	-1,	15,	-1,	9,	17,	-1,	22,	-1,	31,	-1,	-1,	-1,	30,	29,	63,	-1,	-1,	14,	50,	-1,	-1,	-1,	51,	-1,	28,	34,	8,	-1,	-1,	-1,	57,	27,	61,	-1,	38,	-1,	-1,	4,	-1,	-1,	42,	53,	60,	37,	43,	-1,	-1,	-1,	21,	-1,	-1,	-1,	16|
58,	31,	-1,	-1,	-1,	-1,	18,	53,	36,	-1,	-1,	33,	41,	23,	-1,	3,	-1,	14,	13,	51,	4,	16,	-1,	17,	-1,	-1,	-1,	39,	47,	-1,	-1,	46,	-1,	37,	9,	-1,	-1,	45,	29,	-1,	20,	-1,	-1,	-1,	30,	44,	48,	55,	-1,	-1,	-1,	19,	-1,	56,	6,	-1,	-1,	40,	26,	-1,	-1,	62,	27,	2|
-1,	44,	-1,	-1,	-1,	19,	-1,	61,	-1,	22,	-1,	-1,	17,	-1,	-1,	-1,	49,	34,	23,	-1,	-1,	-1,	38,	35,	39,	53,	-1,	28,	10,	12,	-1,	8,	-1,	-1,	40,	-1,	58,	-1,	-1,	-1,	1,	5,	-1,	7,	-1,	52,	56,	-1,	-1,	4,	29,	-1,	20,	27,	-1,	-1,	-1,	-1,	-1,	-1,	59,	-1,	45,	37|
22,	-1,	-1,	-1,	23,	-1,	26,	-1,	-1,	62,	-1,	-1,	1,	41,	-1,	-1,	36,	-1,	-1,	27,	59,	21,	16,	54,	-1,	24,	-1,	-1,	3,	48,	43,	47,	-1,	-1,	4,	-1,	-1,	30,	42,	-1,	17,	-1,	-1,	-1,	40,	-1,	-1,	-1,	12,	-1,	-1,	-1,	-1,	-1,	11,	-1,	-1,	58,	64,	15,	46,	-1,	-1,	6|
-1,	52,	-1,	38,	-1,	9,	48,	-1,	-1,	18,	35,	11,	42,	-1,	54,	30,	45,	-1,	4,	-1,	26,	-1,	-1,	-1,	-1,	-1,	-1,	-1,	-1,	-1,	25,	-1,	-1,	-1,	-1,	46,	23,	7,	51,	14,	43,	-1,	-1,	31,	-1,	47,	-1,	13,	24,	34,	40,	-1,	-1,	-1,	3,	1,	-1,	-1,	22,	-1,	-1,	-1,	-1,	-1|
-1,	58,	50,	35,	27,	-1,	-1,	-1,	-1,	64,	-1,	61,	25,	44,	63,	52,	-1,	-1,	14,	-1,	-1,	-1,	17,	-1,	11,	-1,	-1,	29,	9,	1,	-1,	-1,	13,	-1,	10,	-1,	-1,	24,	-1,	-1,	-1,	26,	15,	53,	33,	-1,	-1,	51,	19,	-1,	38,	59,	43,	-1,	16,	-1,	47,	48,	56,	39,	-1,	55,	3,	-1|
-1,	51,	-1,	45,	21,	43,	33,	-1,	-1,	-1,	26,	14,	31,	12,	7,	8,	-1,	13,	-1,	48,	-1,	-1,	-1,	-1,	-1,	36,	19,	4,	6,	-1,	-1,	55,	20,	57,	28,	27,	62,	61,	-1,	50,	-1,	-1,	-1,	-1,	42,	-1,	16,	-1,	-1,	-1,	5,	25,	10,	15,	56,	2,	52,	35,	18,	38,	-1,	-1,	-1,	-1|
46,	-1,	57,	-1,	-1,	15,	-1,	28,	-1,	45,	-1,	16,	6,	-1,	40,	-1,	-1,	63,	-1,	18,	12,	-1,	58,	22,	-1,	44,	27,	54,	-1,	-1,	59,	-1,	60,	25,	-1,	33,	-1,	5,	-1,	-1,	11,	30,	-1,	-1,	-1,	14,	-1,	34,	-1,	-1,	53,	48,	17,	-1,	-1,	-1,	13,	-1,	-1,	-1,	31,	-1,	-1,	-1|
6,	12,	-1,	16,	-1,	5,	-1,	3,	21,	24,	43,	-1,	60,	10,	53,	-1,	8,	-1,	-1,	-1,	-1,	-1,	-1,	-1,	23,	18,	40,	56,	-1,	-1,	-1,	45,	-1,	-1,	-1,	39,	-1,	38,	-1,	-1,	48,	36,	20,	-1,	25,	-1,	-1,	-1,	42,	28,	61,	14,	58,	33,	-1,	57,	-1,	-1,	-1,	-1,	-1,	-1,	54,	-1|
-1,	-1,	-1,	24,	-1,	-1,	-1,	-1,	-1,	-1,	-1,	20,	4,	3,	19,	-1,	10,	-1,	39,	40,	47,	60,	-1,	29,	13,	-1,	-1,	-1,	-1,	-1,	-1,	-1,	54,	34,	41,	48,	-1,	-1,	-1,	35,	-1,	23,	-1,	18,	-1,	58,	45,	-1,	-1,	55,	31,	-1,	-1,	46,	-1,	44,	1,	-1,	7,	61,	-1,	-1,	-1,	-1|
-1,	60,	6,	-1,	15,	62,	-1,	52,	-1,	-1,	-1,	2,	21,	40,	43,	50,	-1,	-1,	7,	-1,	-1,	-1,	28,	61,	36,	55,	-1,	-1,	53,	-1,	11,	9,	-1,	56,	20,	25,	41,	19,	23,	-1,	3,	-1,	54,	39,	-1,	-1,	34,	42,	-1,	24,	-1,	-1,	16,	45,	-1,	-1,	8,	-1,	-1,	-1,	12,	33,	-1,	-1|
-1,	30,	1,	-1,	51,	-1,	-1,	25,	3,	57,	63,	-1,	52,	-1,	22,	27,	41,	-1,	-1,	19,	39,	-1,	-1,	-1,	62,	-1,	-1,	-1,	-1,	28,	-1,	-1,	-1,	14,	13,	-1,	45,	-1,	7,	6,	-1,	9,	18,	-1,	20,	-1,	-1,	56,	-1,	-1,	4,	-1,	-1,	55,	21,	46,	-1,	-1,	-1,	2,	26,	43,	-1,	60|
2,	-1,	24,	23,	37,	-1,	-1,	-1,	-1,	-1,	-1,	-1,	-1,	-1,	-1,	15,	-1,	-1,	51,	-1,	-1,	-1,	14,	62,	35,	-1,	12,	-1,	-1,	33,	21,	7,	-1,	44,	-1,	-1,	32,	40,	34,	-1,	64,	16,	-1,	27,	-1,	41,	-1,	61,	9,	-1,	3,	29,	-1,	26,	-1,	-1,	-1,	-1,	-1,	-1,	53,	-1,	39,	-1|
29,	-1,	41,	32,	-1,	55,	17,	19,	11,	-1,	-1,	30,	58,	13,	-1,	53,	-1,	64,	43,	-1,	57,	22,	-1,	-1,	-1,	56,	44,	-1,	-1,	3,	10,	54,	-1,	47,	5,	-1,	27,	-1,	12,	16,	-1,	-1,	31,	-1,	50,	-1,	-1,	62,	39,	-1,	35,	7,	40,	-1,	25,	20,	-1,	24,	52,	-1,	18,	-1,	-1,	-1|
7,	-1,	47,	-1,	31,	-1,	-1,	64,	45,	41,	-1,	-1,	-1,	-1,	10,	-1,	15,	-1,	-1,	-1,	-1,	-1,	-1,	1,	-1,	-1,	25,	-1,	16,	-1,	-1,	-1,	3,	52,	62,	-1,	-1,	-1,	24,	29,	-1,	-1,	22,	5,	-1,	12,	14,	-1,	-1,	61,	51,	28,	11,	50,	-1,	36,	-1,	56,	-1,	35,	-1,	19,	-1,	57|
-1,	42,	33,	53,	35,	21,	-1,	43,	-1,	26,	-1,	-1,	9,	62,	-1,	39,	-1,	36,	63,	47,	31,	-1,	-1,	-1,	8,	-1,	64,	34,	41,	24,	-1,	60,	50,	18,	-1,	-1,	10,	49,	55,	51,	-1,	-1,	-1,	-1,	15,	23,	-1,	-1,	-1,	5,	-1,	12,	54,	-1,	-1,	-1,	6,	-1,	20,	-1,	-1,	13,	-1,	-1|
-1,	-1,	39,	-1,	9,	-1,	36,	48,	23,	42,	24,	1,	44,	-1,	17,	-1,	3,	-1,	21,	50,	20,	18,	-1,	-1,	27,	30,	-1,	-1,	19,	-1,	58,	14,	-1,	15,	60,	63,	26,	-1,	-1,	28,	-1,	47,	-1,	13,	10,	7,	4,	29,	-1,	43,	-1,	-1,	-1,	64,	-1,	53,	31,	59,	-1,	55,	-1,	-1,	-1,	-1|
-1,	5,	-1,	59,	54,	-1,	56,	-1,	-1,	36,	51,	38,	-1,	64,	32,	19,	40,	60,	44,	-1,	-1,	-1,	25,	-1,	45,	29,	-1,	2,	39,	15,	6,	-1,	48,	9,	21,	-1,	-1,	37,	31,	42,	35,	28,	52,	11,	55,	33,	-1,	-1,	-1,	-1,	-1,	-1,	23,	-1,	10,	62,	7,	-1,	47,	14,	41,	-1,	46,	61|
34,	41,	58,	-1,	-1,	-1,	-1,	-1,	42,	-1,	53,	-1,	33,	27,	26,	-1,	-1,	30,	-1,	49,	-1,	-1,	-1,	-1,	-1,	25,	55,	-1,	63,	-1,	46,	15,	44,	6,	57,	24,	-1,	59,	-1,	-1,	7,	22,	-1,	28,	-1,	39,	21,	60,	23,	-1,	56,	13,	5,	-1,	-1,	-1,	45,	-1,	2,	54,	-1,	-1,	-1,	35|
-1,	61,	23,	55,	-1,	32,	46,	-1,	-1,	21,	-1,	25,	13,	-1,	-1,	-1,	20,	-1,	15,	-1,	40,	-1,	63,	-1,	-1,	1,	26,	-1,	-1,	-1,	45,	-1,	-1,	-1,	-1,	-1,	-1,	-1,	36,	48,	-1,	18,	8,	-1,	-1,	-1,	27,	-1,	52,	60,	62,	41,	-1,	4,	-1,	29,	19,	-1,	30,	-1,	34,	-1,	-1,	44|
17,	25,	45,	-1,	3,	-1,	-1,	-1,	-1,	-1,	12,	-1,	11,	8,	48,	14,	-1,	-1,	-1,	41,	22,	28,	-1,	6,	-1,	-1,	-1,	-1,	-1,	-1,	-1,	32,	-1,	-1,	50,	-1,	-1,	-1,	-1,	-1,	63,	1,	40,	-1,	54,	19,	-1,	23,	-1,	-1,	-1,	-1,	59,	7,	-1,	-1,	-1,	15,	5,	-1,	56,	-1,	55,	-1|
-1,	-1,	27,	19,	-1,	-1,	-1,	-1,	-1,	28,	-1,	24,	-1,	-1,	45,	-1,	23,	4,	36,	-1,	1,	-1,	-1,	21,	2,	47,	3,	-1,	58,	-1,	-1,	-1,	7,	-1,	25,	-1,	61,	15,	-1,	-1,	41,	33,	-1,	37,	32,	42,	-1,	9,	-1,	-1,	44,	-1,	51,	16,	35,	-1,	12,	60,	39,	-1,	6,	49,	-1,	-1|
-1,	-1,	-1,	-1,	-1,	53,	16,	-1,	6,	20,	47,	-1,	38,	19,	2,	-1,	-1,	-1,	-1,	60,	-1,	54,	55,	8,	14,	-1,	49,	-1,	62,	23,	-1,	40,	-1,	-1,	-1,	-1,	-1,	-1,	1,	-1,	30,	-1,	-1,	-1,	-1,	-1,	44,	-1,	15,	27,	45,	10,	-1,	34,	36,	17,	-1,	-1,	-1,	-1,	-1,	-1,	-1,	-1|
-1,	-1,	-1,	-1,	-1,	-1,	-1,	15,	44,	-1,	49,	-1,	-1,	-1,	30,	-1,	35,	-1,	-1,	-1,	-1,	-1,	64,	-1,	59,	-1,	-1,	41,	36,	-1,	54,	-1,	14,	5,	34,	42,	17,	-1,	26,	58,	31,	-1,	-1,	-1,	45,	-1,	51,	4,	21,	-1,	19,	33,	55,	3,	53,	28,	-1,	-1,	27,	23,	-1,	-1,	52,	20|
-1,	-1,	10,	-1,	64,	-1,	-1,	44,	-1,	16,	-1,	18,	56,	54,	31,	-1,	-1,	29,	-1,	45,	-1,	14,	3,	-1,	21,	61,	17,	-1,	38,	-1,	-1,	4,	11,	30,	-1,	-1,	33,	55,	-1,	-1,	13,	15,	-1,	34,	48,	43,	35,	-1,	20,	-1,	-1,	-1,	25,	42,	-1,	22,	-1,	-1,	41,	-1,	47,	63,	24,	-1|
-1,	-1,	-1,	-1,	-1,	54,	59,	-1,	-1,	50,	-1,	63,	-1,	32,	23,	61,	-1,	44,	-1,	43,	-1,	39,	-1,	42,	37,	35,	-1,	51,	11,	52,	34,	-1,	-1,	28,	3,	-1,	-1,	27,	41,	-1,	-1,	2,	47,	-1,	-1,	6,	-1,	-1,	14,	57,	30,	-1,	12,	-1,	-1,	26,	-1,	-1,	29,	-1,	17,	-1,	-1,	-1|
19,	-1,	-1,	31,	61,	-1,	11,	4,	-1,	53,	-1,	-1,	49,	42,	27,	-1,	32,	41,	60,	8,	-1,	2,	-1,	-1,	-1,	46,	36,	-1,	-1,	-1,	-1,	38,	58,	-1,	16,	-1,	21,	-1,	-1,	-1,	-1,	-1,	-1,	-1,	-1,	22,	-1,	-1,	-1,	40,	-1,	3,	-1,	9,	-1,	35,	25,	-1,	-1,	51,	-1,	-1,	44,	-1|
-1,	-1,	40,	60,	-1,	58,	-1,	17,	38,	2,	-1,	-1,	48,	-1,	-1,	32,	51,	37,	-1,	25,	28,	1,	-1,	-1,	54,	-1,	-1,	-1,	-1,	-1,	20,	-1,	-1,	4,	15,	61,	-1,	-1,	-1,	24,	10,	50,	-1,	-1,	35,	13,	-1,	-1,	26,	53,	39,	21,	34,	-1,	-1,	5,	18,	-1,	-1,	-1,	19,	6,	11,	63|
35,	-1,	2,	-1,	45,	34,	-1,	-1,	25,	-1,	21,	39,	-1,	-1,	1,	11,	-1,	53,	-1,	-1,	18,	27,	-1,	-1,	4,	51,	-1,	44,	29,	-1,	49,	-1,	63,	-1,	-1,	-1,	36,	22,	48,	32,	-1,	-1,	-1,	-1,	57,	55,	64,	47,	59,	33,	42,	-1,	-1,	19,	-1,	-1,	-1,	-1,	17,	41,	60,	-1,	-1,	-1|
-1,	-1,	54,	-1,	-1,	22,	-1,	49,	-1,	-1,	9,	64,	-1,	-1,	37,	47,	-1,	19,	-1,	-1,	-1,	17,	-1,	-1,	33,	-1,	-1,	50,	40,	-1,	-1,	-1,	41,	-1,	6,	-1,	30,	-1,	-1,	-1,	32,	-1,	-1,	38,	8,	-1,	59,	1,	-1,	-1,	-1,	-1,	27,	-1,	-1,	60,	-1,	36,	42,	57,	20,	2,	62,	-1|
24,	57,	44,	-1,	-1,	52,	9,	-1,	54,	-1,	8,	55,	62,	50,	-1,	28,	-1,	-1,	-1,	16,	23,	7,	43,	-1,	61,	-1,	-1,	-1,	-1,	-1,	13,	2,	40,	45,	-1,	18,	39,	1,	37,	-1,	-1,	31,	3,	41,	60,	27,	-1,	-1,	51,	-1,	-1,	20,	38,	10,	48,	-1,	21,	26,	-1,	29,	-1,	-1,	32,	14|
64,	-1,	-1,	1,	-1,	-1,	32,	-1,	43,	13,	44,	5,	-1,	-1,	58,	57,	-1,	-1,	-1,	24,	-1,	-1,	-1,	40,	-1,	-1,	-1,	15,	23,	8,	41,	-1,	25,	-1,	-1,	-1,	60,	-1,	-1,	-1,	26,	-1,	-1,	-1,	36,	62,	17,	-1,	18,	-1,	37,	-1,	-1,	49,	-1,	16,	-1,	55,	38,	-1,	-1,	-1,	-1,	-1|
28,	-1,	16,	27,	-1,	50,	15,	26,	-1,	46,	-1,	-1,	-1,	18,	6,	35,	39,	42,	64,	-1,	-1,	45,	13,	44,	-1,	-1,	-1,	3,	-1,	-1,	12,	-1,	-1,	-1,	-1,	20,	43,	47,	-1,	31,	58,	-1,	-1,	29,	19,	-1,	30,	53,	-1,	-1,	-1,	-1,	-1,	-1,	-1,	32,	-1,	-1,	-1,	56,	-1,	52,	-1,	-1|
-1,	13,	-1,	-1,	55,	6,	-1,	62,	30,	34,	7,	51,	-1,	31,	-1,	-1,	-1,	38,	-1,	22,	3,	-1,	-1,	-1,	60,	58,	-1,	1,	-1,	-1,	-1,	57,	-1,	53,	-1,	19,	-1,	-1,	5,	-1,	-1,	44,	-1,	-1,	2,	-1,	40,	-1,	25,	-1,	-1,	63,	-1,	-1,	-1,	54,	43,	23,	35,	-1,	50,	-1,	-1,	45|];
