sudoku-ls/benchmarks_LEQ/INST_64x64/50/inst64x64_50_74.txt
8
1
15	8	-1	43	-1	-1	-1	-1	-1	-1	-1	-1	46	-1	60	31	22	-1	-1	-1	11	-1	10	37	-1	-1	7	26	28	49	-1	50	21	41	-1	6	-1	-1	39	-1	-1	13	-1	-1	-1	34	-1	27	61	-1	-1	-1	32	-1	2	12	-1	42	24	-1	-1	-1	40	-1
59	26	-1	-1	36	-1	63	-1	9	-1	-1	57	27	-1	-1	-1	-1	-1	-1	-1	-1	62	-1	45	-1	38	-1	-1	2	5	-1	16	10	-1	-1	-1	-1	-1	30	25	15	20	55	-1	-1	11	52	8	43	-1	-1	23	47	53	4	-1	49	39	-1	-1	-1	-1	-1	54
-1	29	-1	5	-1	-1	37	7	-1	59	-1	-1	22	-1	-1	13	-1	-1	-1	52	-1	-1	-1	-1	-1	39	-1	-1	-1	-1	-1	-1	62	36	47	-1	-1	-1	44	-1	45	-1	26	2	-1	-1	43	-1	48	25	21	-1	28	-1	-1	-1	46	6	32	20	-1	-1	50	55
23	-1	-1	-1	-1	-1	12	-1	52	-1	-1	15	50	-1	-1	-1	-1	-1	27	34	6	20	-1	-1	57	59	24	-1	30	-1	53	-1	-1	43	-1	16	48	4	33	46	60	38	-1	40	-1	-1	39	-1	-1	-1	63	58	8	51	45	-1	-1	22	3	-1	10	-1	-1	17
-1	-1	9	46	49	-1	-1	-1	-1	63	16	-1	51	-1	-1	-1	-1	39	-1	-1	-1	-1	-1	25	20	45	43	-1	15	-1	14	1	37	40	-1	59	35	13	-1	52	36	58	48	-1	4	-1	-1	21	41	-1	55	54	50	-1	-1	34	38	62	31	-1	-1	-1	30	18
-1	50	17	-1	62	-1	2	-1	20	30	40	-1	-1	-1	4	-1	-1	46	61	26	7	36	-1	16	3	54	-1	6	-1	31	47	11	-1	38	-1	-1	-1	63	8	-1	49	-1	-1	25	-1	53	5	-1	-1	-1	14	-1	13	22	39	-1	-1	21	-1	52	15	-1	60	56
-1	-1	-1	-1	-1	-1	-1	58	-1	3	14	43	53	38	-1	25	-1	-1	9	-1	64	19	-1	5	18	37	8	-1	13	40	-1	-1	23	24	22	-1	15	31	49	-1	61	62	59	-1	-1	56	1	-1	-1	26	-1	-1	-1	29	60	10	63	45	-1	47	2	-1	-1	-1
60	47	25	-1	-1	45	64	-1	-1	-1	23	-1	-1	-1	21	2	18	-1	41	4	-1	-1	-1	12	-1	-1	63	-1	55	58	61	10	-1	-1	-1	-1	3	-1	53	-1	16	-1	-1	14	46	24	-1	-1	-1	-1	52	40	-1	5	-1	11	29	-1	-1	-1	-1	-1	-1	-1
11	17	-1	-1	-1	-1	49	-1	-1	12	-1	-1	-1	28	29	-1	-1	31	-1	15	-1	-1	20	-1	-1	43	-1	47	60	-1	55	-1	18	23	45	41	-1	-1	59	-1	51	-1	-1	8	13	-1	24	16	-1	44	-1	53	-1	-1	54	7	62	50	-1	-1	-1	3	-1	-1
43	64	53	50	41	35	8	-1	-1	-1	46	62	3	45	14	-1	-1	51	-1	-1	-1	57	1	49	-1	-1	-1	17	59	11	-1	6	61	-1	-1	10	-1	-1	-1	26	-1	-1	9	47	-1	-1	-1	22	-1	20	-1	-1	18	52	24	40	16	54	-1	-1	-1	-1	38	-1
-1	2	14	29	44	48	-1	6	-1	15	1	-1	-1	-1	49	-1	21	-1	-1	-1	52	-1	7	-1	-1	-1	34	-1	-1	62	-1	24	9	35	8	4	46	-1	13	-1	59	61	36	60	-1	5	42	26	38	-1	-1	50	-1	11	-1	-1	-1	27	-1	10	-1	58	18	64
63	-1	-1	-1	-1	27	21	60	-1	25	-1	-1	-1	-1	16	26	42	55	-1	35	-1	-1	24	-1	40	-1	52	-1	-1	-1	-1	12	-1	49	39	-1	47	-1	64	37	50	-1	29	-1	-1	32	18	14	-1	9	6	57	-1	-1	-1	-1	11	-1	-1	-1	-1	-1	15	19
-1	28	4	34	47	33	-1	45	-1	-1	-1	22	-1	-1	-1	-1	-1	26	-1	-1	63	41	8	-1	10	13	-1	-1	-1	-1	-1	-1	-1	16	-1	-1	7	-1	-1	-1	-1	55	-1	-1	31	-1	-1	11	27	-1	60	-1	-1	32	-1	-1	24	20	43	53	-1	35	5	12
10	-1	20	42	-1	-1	-1	31	24	51	-1	4	2	-1	50	-1	13	-1	-1	14	-1	33	40	18	-1	-1	-1	-1	-1	-1	27	3	-1	19	-1	-1	25	56	-1	-1	53	-1	30	6	-1	-1	7	-1	49	17	-1	-1	-1	-1	-1	47	-1	-1	-1	-1	57	29	-1	23
62	-1	38	57	-1	23	-1	56	-1	10	-1	-1	35	7	44	-1	-1	-1	2	-1	5	-1	-1	4	-1	8	37	18	-1	-1	-1	31	15	32	-1	50	24	11	-1	-1	-1	-1	-1	-1	43	20	-1	-1	-1	16	-1	61	-1	-1	51	-1	-1	30	-1	-1	-1	-1	-1	-1
18	59	-1	-1	-1	-1	5	32	57	55	-1	19	-1	-1	52	-1	-1	-1	62	-1	16	-1	54	3	50	49	28	9	-1	-1	-1	58	-1	-1	42	12	-1	6	-1	-1	-1	17	-1	45	-1	35	-1	-1	-1	-1	-1	37	-1	-1	-1	13	14	7	40	8	-1	47	1	31
25	33	63	-1	-1	59	-1	21	-1	40	-1	-1	-1	-1	-1	-1	54	27	49	1	-1	37	-1	10	-1	-1	6	-1	18	9	-1	13	4	11	-1	-1	-1	3	-1	19	39	-1	32	-1	-1	51	2	-1	-1	-1	48	56	26	-1	-1	58	20	57	46	64	-1	-1	-1	50
-1	-1	28	3	30	49	57	37	-1	-1	-1	-1	14	-1	33	6	-1	-1	-1	-1	-1	34	-1	46	-1	-1	-1	42	-1	19	2	-1	-1	-1	-1	-1	-1	-1	-1	54	-1	-1	24	26	-1	45	-1	48	-1	64	-1	60	-1	-1	1	-1	56	-1	21	-1	-1	-1	12	-1
36	24	-1	12	1	-1	-1	-1	-1	54	-1	17	26	-1	-1	44	11	45	16	57	30	-1	-1	-1	46	-1	39	-1	-1	34	40	25	-1	7	-1	-1	50	51	-1	-1	23	8	53	-1	-1	59	38	35	31	-1	-1	-1	33	28	-1	-1	-1	18	-1	49	-1	-1	29	9
-1	4	46	-1	29	-1	45	-1	1	11	-1	42	19	16	-1	23	53	24	-1	44	-1	58	-1	-1	17	41	47	-1	-1	-1	-1	-1	-1	39	30	-1	13	25	-1	5	55	56	-1	20	37	-1	54	-1	7	-1	34	-1	-1	63	12	21	-1	-1	-1	60	33	27	-1	-1
-1	43	34	15	-1	2	50	41	-1	-1	-1	56	57	63	64	24	28	21	-1	-1	60	35	51	13	49	-1	1	-1	8	29	-1	59	55	-1	23	37	-1	-1	45	12	-1	-1	19	10	61	-1	-1	-1	44	-1	-1	-1	62	39	-1	14	17	-1	36	31	58	-1	-1	47
38	-1	35	-1	-1	7	53	23	-1	8	36	59	47	-1	18	-1	56	-1	12	2	-1	-1	22	-1	44	-1	33	45	54	-1	37	28	16	-1	-1	26	-1	-1	62	-1	9	-1	14	-1	3	15	-1	49	-1	46	-1	-1	-1	-1	-1	4	34	-1	1	-1	13	42	51	32
56	-1	48	20	-1	-1	52	-1	-1	-1	30	28	-1	-1	-1	21	14	3	6	32	50	-1	61	-1	-1	-1	22	36	26	-1	5	-1	-1	-1	33	-1	-1	34	-1	10	4	-1	-1	-1	18	-1	60	-1	-1	-1	-1	49	-1	-1	-1	-1	-1	11	-1	-1	-1	-1	-1	62
54	39	11	10	32	-1	22	16	12	49	-1	-1	-1	-1	46	60	31	52	-1	-1	48	-1	-1	23	30	50	-1	-1	27	53	-1	-1	24	20	38	-1	1	14	-1	-1	-1	40	13	33	62	21	-1	17	-1	36	2	8	-1	-1	18	42	35	-1	-1	-1	-1	28	-1	-1
51	-1	-1	62	-1	1	-1	24	64	-1	56	58	-1	-1	28	10	63	5	45	54	-1	-1	41	7	-1	-1	30	8	31	43	-1	-1	12	-1	-1	-1	-1	26	-1	-1	-1	39	-1	36	-1	37	13	19	50	48	49	-1	35	25	-1	23	-1	-1	-1	-1	38	-1	-1	-1
-1	-1	21	2	8	29	23	55	53	-1	22	47	39	1	59	-1	57	18	-1	-1	49	46	-1	36	-1	-1	-1	-1	-1	-1	-1	48	-1	-1	-1	-1	-1	41	-1	43	12	-1	6	-1	52	-1	-1	-1	16	51	15	45	-1	44	-1	61	64	-1	-1	50	-1	-1	-1	42
37	9	43	6	-1	-1	-1	-1	-1	-1	-1	-1	-1	-1	57	4	-1	47	48	12	-1	-1	-1	-1	-1	-1	-1	-1	51	-1	-1	41	-1	-1	55	35	-1	-1	-1	-1	-1	-1	34	-1	-1	-1	-1	-1	32	-1	-1	2	-1	13	28	-1	-1	-1	-1	1	-1	17	56	-1
45	32	19	-1	-1	14	10	-1	-1	31	-1	21	54	30	-1	-1	64	-1	-1	-1	-1	52	44	38	28	27	-1	37	56	25	-1	-1	1	13	-1	47	-1	-1	4	-1	2	-1	-1	-1	-1	8	-1	-1	40	7	-1	-1	-1	-1	-1	63	9	41	-1	-1	-1	20	6	-1
4	-1	26	-1	-1	56	7	13	37	-1	6	50	-1	14	-1	62	33	20	-1	3	15	-1	-1	-1	34	40	-1	11	-1	64	-1	44	-1	-1	48	21	-1	10	32	2	29	-1	-1	51	47	1	28	-1	5	-1	36	55	39	-1	-1	-1	-1	-1	-1	-1	-1	54	31	-1
-1	-1	-1	11	-1	-1	-1	57	2	29	-1	-1	-1	-1	12	-1	-1	6	59	37	25	10	39	60	32	-1	62	-1	-1	-1	-1	21	36	50	-1	22	-1	-1	-1	27	42	-1	-1	9	-1	-1	33	-1	-1	41	-1	1	-1	38	-1	24	28	-1	-1	43	-1	-1	13	8
-1	35	-1	39	20	-1	47	-1	-1	32	48	-1	15	24	-1	17	2	22	-1	31	-1	-1	26	-1	29	-1	-1	19	-1	50	-1	52	-1	-1	18	-1	34	8	25	3	62	57	27	61	41	38	-1	45	-1	-1	-1	-1	-1	-1	37	43	55	12	58	21	36	-1	49	16
-1	-1	61	28	-1	63	-1	53	36	-1	-1	-1	-1	-1	-1	-1	-1	-1	13	51	-1	-1	-1	-1	12	-1	59	39	-1	38	-1	46	-1	-1	9	-1	54	45	-1	64	20	24	-1	43	-1	-1	-1	-1	-1	52	-1	19	-1	56	6	8	5	40	26	11	32	62	-1	2
14	44	-1	-1	2	19	42	-1	51	22	-1	-1	-1	-1	-1	-1	49	34	-1	-1	-1	25	-1	-1	39	53	-1	28	-1	-1	30	8	-1	31	40	-1	58	32	18	-1	-1	-1	21	-1	24	-1	56	-1	-1	-1	29	-1	-1	27	-1	-1	41	16	57	-1	59	-1	-1	-1
22	56	13	-1	23	-1	26	-1	-1	-1	-1	29	1	41	39	5	-1	-1	57	27	59	-1	-1	54	51	24	38	-1	-1	-1	43	47	53	63	4	2	-1	30	-1	8	17	-1	-1	-1	40	10	61	44	12	35	7	32	9	18	11	-1	-1	58	-1	15	-1	-1	20	-1
-1	-1	-1	38	-1	-1	48	-1	-1	-1	35	-1	-1	-1	54	30	45	-1	4	-1	-1	61	15	56	-1	-1	-1	-1	-1	-1	25	49	29	64	59	46	-1	7	-1	14	43	6	-1	-1	12	-1	-1	13	-1	34	40	62	-1	-1	-1	1	-1	-1	22	-1	-1	-1	-1	10
31	58	-1	-1	-1	40	-1	18	28	64	37	-1	25	44	-1	-1	5	7	14	46	2	30	-1	-1	11	-1	20	-1	-1	1	42	-1	-1	12	-1	-1	-1	-1	-1	-1	-1	-1	-1	-1	33	57	-1	-1	19	8	38	59	43	54	16	6	-1	48	56	39	-1	-1	3	4
-1	-1	30	-1	21	43	33	63	58	23	26	14	-1	12	-1	8	-1	13	-1	48	41	3	11	-1	22	-1	19	4	6	-1	64	55	20	-1	28	27	-1	61	9	50	-1	-1	46	59	-1	54	16	-1	-1	49	5	25	10	-1	-1	2	-1	-1	18	-1	-1	-1	-1	-1
46	1	57	-1	10	-1	41	28	50	45	32	16	6	-1	-1	38	55	63	20	18	-1	51	58	-1	-1	-1	27	-1	35	26	-1	61	-1	25	37	-1	19	-1	-1	-1	11	30	62	4	-1	14	29	34	36	21	-1	48	-1	-1	64	39	-1	-1	8	-1	-1	24	-1	-1
-1	-1	49	16	4	-1	-1	3	-1	24	43	-1	60	-1	-1	-1	-1	9	-1	62	-1	-1	37	64	-1	18	-1	56	46	41	-1	45	47	1	-1	-1	22	38	-1	-1	-1	36	-1	-1	-1	2	55	63	-1	-1	-1	14	58	-1	13	57	50	-1	-1	-1	27	-1	-1	11
32	-1	59	24	11	-1	62	-1	-1	9	-1	-1	4	-1	-1	56	10	-1	-1	-1	47	-1	42	-1	13	-1	-1	57	-1	37	63	33	54	34	41	-1	-1	-1	-1	35	27	-1	-1	-1	-1	-1	45	-1	-1	55	31	-1	-1	-1	52	44	-1	-1	7	-1	21	12	-1	26
-1	-1	-1	58	-1	62	-1	52	-1	5	-1	2	21	-1	43	50	-1	35	7	10	37	-1	-1	61	-1	-1	13	-1	53	47	-1	-1	-1	56	20	-1	41	19	23	-1	3	-1	54	39	51	26	34	42	-1	-1	-1	27	-1	45	14	48	-1	64	-1	-1	12	-1	22	1
61	30	1	8	51	-1	-1	-1	3	57	63	37	52	-1	-1	27	41	16	-1	19	-1	-1	12	59	-1	-1	50	40	-1	28	-1	-1	-1	14	-1	64	45	54	7	6	-1	9	-1	-1	20	-1	-1	56	-1	47	-1	34	-1	-1	21	46	15	-1	-1	2	26	-1	-1	-1
-1	-1	24	-1	-1	11	28	50	55	-1	20	46	18	-1	8	15	6	-1	51	13	-1	-1	-1	-1	35	52	12	-1	-1	33	21	7	22	44	-1	-1	-1	40	-1	-1	-1	16	57	27	1	-1	36	61	-1	-1	-1	-1	-1	-1	-1	-1	48	-1	-1	-1	-1	10	-1	-1
29	-1	-1	-1	-1	-1	-1	-1	11	-1	4	30	58	13	61	-1	-1	64	43	-1	-1	22	-1	-1	26	56	-1	-1	1	-1	-1	-1	-1	-1	-1	36	-1	-1	-1	-1	8	-1	-1	63	50	-1	37	62	-1	15	-1	-1	-1	6	-1	20	51	-1	-1	28	-1	-1	42	-1
7	-1	-1	-1	31	13	-1	64	-1	41	-1	60	34	6	-1	-1	15	-1	54	33	-1	55	-1	-1	-1	17	25	-1	16	46	-1	37	-1	-1	-1	-1	-1	39	24	29	44	-1	22	5	21	-1	-1	40	-1	-1	51	-1	11	50	-1	36	27	-1	-1	35	30	19	23	-1
16	42	-1	53	35	-1	-1	-1	-1	26	28	-1	-1	62	56	-1	-1	-1	-1	-1	31	-1	-1	11	8	4	-1	34	-1	-1	32	60	-1	-1	-1	-1	-1	49	55	51	-1	-1	38	30	-1	23	19	2	57	5	59	12	54	-1	-1	52	-1	-1	-1	-1	25	13	58	-1
12	45	39	-1	9	46	36	48	23	42	24	1	-1	35	17	54	-1	8	21	50	20	18	52	34	27	30	51	22	19	61	58	-1	-1	-1	60	63	-1	-1	-1	-1	6	-1	25	-1	-1	-1	4	29	2	-1	32	38	-1	-1	-1	53	-1	59	62	55	-1	40	16	5
27	5	18	-1	54	3	-1	22	16	36	51	-1	-1	-1	-1	19	-1	60	44	-1	-1	-1	-1	-1	45	29	57	2	-1	-1	-1	-1	48	9	21	-1	-1	-1	31	-1	35	28	52	11	-1	-1	49	-1	-1	63	13	30	-1	8	-1	62	7	34	-1	-1	41	-1	-1	61
-1	41	58	-1	-1	-1	-1	-1	42	-1	-1	-1	33	-1	-1	36	-1	-1	-1	49	-1	50	-1	52	-1	-1	-1	12	63	-1	-1	-1	-1	6	-1	-1	-1	-1	-1	-1	-1	-1	11	28	-1	-1	21	-1	-1	32	56	13	-1	-1	8	38	45	14	2	54	-1	-1	-1	-1
49	61	23	55	-1	-1	-1	-1	-1	-1	-1	-1	13	-1	5	22	-1	11	-1	-1	40	-1	63	51	24	1	-1	-1	33	39	-1	-1	-1	2	35	-1	9	64	-1	48	38	-1	-1	57	14	50	-1	10	-1	60	-1	41	-1	-1	47	-1	-1	31	30	-1	34	-1	53	-1
17	-1	-1	30	-1	-1	35	-1	10	-1	-1	52	-1	8	48	-1	34	33	-1	-1	22	-1	27	6	-1	42	-1	64	-1	44	-1	-1	-1	60	50	38	-1	53	47	-1	-1	-1	-1	24	54	19	62	23	-1	37	-1	9	-1	-1	-1	49	36	-1	5	58	56	-1	-1	-1
8	40	-1	19	52	38	-1	14	-1	-1	-1	-1	29	-1	45	55	-1	4	36	-1	-1	56	-1	21	-1	-1	3	-1	-1	22	50	-1	-1	10	-1	62	-1	-1	-1	63	41	-1	-1	37	32	-1	-1	9	-1	11	-1	18	51	16	-1	-1	-1	60	-1	48	-1	-1	-1	-1
48	7	12	-1	56	-1	16	33	6	20	-1	35	38	19	-1	-1	61	-1	5	-1	24	-1	-1	8	-1	-1	-1	-1	62	23	28	-1	-1	-1	-1	-1	-1	-1	-1	-1	-1	3	-1	-1	26	29	-1	59	15	27	45	-1	-1	34	36	17	-1	9	-1	-1	11	-1	43	51
50	-1	29	-1	63	-1	-1	15	-1	-1	-1	-1	-1	9	-1	-1	-1	10	-1	38	32	-1	-1	47	-1	-1	-1	-1	-1	-1	-1	56	14	-1	34	-1	17	-1	-1	58	31	-1	16	46	45	-1	-1	-1	21	2	-1	33	-1	3	53	28	-1	-1	-1	23	62	22	52	-1
26	62	-1	-1	-1	-1	6	44	60	16	57	-1	-1	-1	-1	51	-1	-1	-1	45	53	14	-1	2	21	-1	-1	-1	38	27	8	-1	11	-1	-1	-1	-1	-1	-1	-1	13	15	-1	34	-1	-1	-1	52	-1	1	-1	39	25	42	58	22	-1	32	41	-1	47	63	-1	28
5	-1	60	-1	-1	54	-1	-1	-1	-1	62	-1	64	32	-1	61	-1	-1	46	-1	58	39	-1	42	-1	35	-1	-1	11	52	34	-1	-1	-1	3	8	-1	27	41	-1	-1	2	47	55	-1	-1	-1	36	14	-1	30	31	12	-1	-1	-1	33	-1	-1	25	17	-1	-1	7
19	-1	7	31	-1	20	-1	4	17	-1	33	-1	49	-1	27	-1	-1	41	-1	-1	-1	2	59	-1	47	-1	-1	-1	45	-1	-1	38	58	54	16	-1	-1	29	-1	62	-1	14	63	23	5	-1	-1	-1	28	40	64	-1	1	9	-1	35	25	-1	34	-1	24	-1	44	-1
-1	-1	40	-1	-1	58	-1	-1	-1	-1	52	23	48	22	-1	32	51	37	55	25	28	1	-1	-1	54	-1	-1	-1	7	30	20	-1	-1	-1	-1	-1	-1	-1	-1	24	10	50	45	-1	-1	13	9	33	26	53	39	21	34	-1	-1	5	-1	-1	-1	-1	-1	6	-1	63
35	-1	2	56	45	34	-1	38	-1	61	-1	-1	24	15	1	11	62	53	50	-1	18	27	6	-1	-1	51	-1	44	29	16	49	-1	-1	26	-1	13	-1	22	48	32	54	-1	37	-1	-1	-1	-1	-1	59	-1	-1	52	-1	19	23	-1	40	-1	-1	41	-1	8	9	-1
-1	-1	-1	63	-1	22	-1	49	4	-1	9	-1	45	29	-1	47	26	-1	-1	5	46	-1	-1	31	-1	28	10	50	40	55	-1	39	41	3	-1	-1	-1	-1	-1	23	-1	34	-1	38	8	-1	-1	-1	-1	58	-1	43	-1	61	-1	60	53	-1	-1	57	20	2	62	-1
-1	-1	44	33	53	52	-1	47	-1	-1	-1	55	62	50	-1	28	-1	15	-1	16	-1	-1	43	63	61	-1	-1	-1	-1	-1	13	2	40	45	49	18	-1	1	37	-1	-1	-1	3	-1	60	-1	11	46	51	56	-1	20	38	10	48	-1	21	26	12	-1	5	64	-1	14
64	-1	-1	-1	-1	-1	-1	-1	-1	-1	-1	-1	-1	-1	-1	-1	-1	-1	34	24	-1	-1	-1	-1	-1	19	11	-1	23	8	-1	22	25	27	12	-1	-1	-1	-1	-1	26	7	39	42	-1	62	17	20	18	45	37	-1	-1	-1	50	16	3	55	38	-1	-1	-1	-1	-1
-1	-1	-1	27	-1	50	15	26	40	-1	-1	41	59	18	6	-1	-1	42	-1	-1	54	45	-1	44	-1	-1	21	3	-1	63	-1	-1	-1	55	51	-1	-1	-1	38	-1	-1	-1	4	-1	19	48	30	-1	-1	14	-1	-1	24	57	62	32	10	-1	33	-1	-1	52	7	-1
-1	13	8	14	-1	-1	39	-1	30	-1	-1	-1	10	-1	-1	-1	12	38	-1	22	3	-1	-1	-1	60	58	-1	1	-1	-1	-1	-1	-1	-1	-1	19	-1	46	5	-1	-1	-1	-1	-1	2	18	-1	-1	-1	-1	41	63	-1	-1	-1	-1	-1	-1	-1	-1	-1	-1	37	45
64 
3 1 62 4
13 43 35 30
49 12 35 55
43 58 19 23
35 25 24 23
2 45 7 49
60 55 51 54
27 22 50 43
4 46 9 8
36 35 53 52
27 14 21 26
48 13 57 16
12 11 60 49
46 9 26 53
17 62 60 64
35 28 56 17
55 27 39 58
4 16 18 2
50 57 49 39
59 24 22 14
46 6 64 44
46 55 36 41
28 38 36 61
36 38 28 64
53 18 13 47
15 62 49 15
9 24 21 51
35 61 51 22
4 32 41 9
32 45 41 17
8 47 49 19
48 15 53 35
46 3 3 28
17 15 3 62
52 55 7 9
15 23 8 64
34 6 24 49
26 2 37 60
10 20 7 1
53 32 25 36
43 46 7 62
54 36 52 46
45 36 40 18
8 4 1 52
34 56 29 59
48 63 23 46
43 10 11 22
54 27 40 36
53 27 40 9
20 50 33 56
28 15 56 28
29 33 38 25
11 28 1 64
7 18 15 30
53 23 28 20
3 3 55 13
56 50 45 64
6 14 28 54
23 34 8 55
29 42 62 37
16 6 27 27
42 25 49 21
56 12 18 47
34 59 64 33
